Instance0
Objective;Best_Integer;Best_Bound
262.6193;639.6325;262.6193
286.5591;639.6325;Fract:7
290.8679;462.8177;Fract:4
293.3821;462.8177;Fract:4
295.8363;462.8177;Fract:5
296.6675;462.8177;Fract:2
296.7782;462.8177;Fract:1
297.6156;462.8177;Fract:1
297.6156;462.8177;297.9134
CPXPARAM_MIP_Cuts_Gomory 9
Instance1
Objective;Best_Integer;Best_Bound
integral;262.6193;262.6193
CPXPARAM_MIP_Cuts_Gomory 0
Instance2
Objective;Best_Integer;Best_Bound
269.4766;639.6325;269.4766
275.7599;639.6325;Fract:5
281.7903;423.2225;Fract:7
288.8393;423.2225;Fract:2
300.9110;423.2225;Fract:6
303.1687;423.2225;Fract:5
303.2100;423.2225;Fract:1
304.7757;415.0905;305.8914
CPXPARAM_MIP_Cuts_Gomory 10
Instance3
Objective;Best_Integer;Best_Bound
314.8220;883.5817;314.8220
integral;314.8876;Fract:1
cutoff;314.8876;40
CPXPARAM_MIP_Cuts_Gomory 1
Instance4
Objective;Best_Integer;Best_Bound
405.5114;634.5912;405.5114
410.2840;634.5912;Fract:7
414.8963;455.9855;Fract:7
418.5444;455.9855;Fract:3
420.1557;455.9855;Fract:7
420.2955;455.9855;Fract:4
420.3064;455.9855;Fract:2
420.9215;441.1644;421.3223
CPXPARAM_MIP_Cuts_Gomory 12
Instance5
Objective;Best_Integer;Best_Bound
405.5114;693.8542;405.5114
integral;405.9187;405.9187
CPXPARAM_MIP_Cuts_Gomory 0
Instance6
Objective;Best_Integer;Best_Bound
405.5114;648.3061;405.5114
411.7817;648.3061;Fract:7
415.5888;449.4074;Fract:5
416.1217;449.4074;Fract:6
417.1928;449.4074;Fract:5
418.0269;449.4074;Fract:3
418.0445;449.4074;Fract:1
419.2007;449.4074;419.5804
CPXPARAM_MIP_Cuts_Gomory 8
Instance7
Objective;Best_Integer;Best_Bound
integral;425.0746;425.0746
CPXPARAM_MIP_Cuts_Gomory 0
Instance8
Objective;Best_Integer;Best_Bound
484.8467;648.8417;484.8467
509.6615;648.8417;Fract:7
515.0024;626.4130;Fract:9
518.8949;626.4130;Fract:6
520.1268;607.3004;Fract:4
520.3998;607.3004;Fract:4
520.3998;607.3004;521.4192
CPXPARAM_MIP_Cuts_Gomory 9
Instance9
Objective;Best_Integer;Best_Bound
integral;484.8467;484.8467
CPXPARAM_MIP_Cuts_Gomory 0
Instance10
Objective;Best_Integer;Best_Bound
498.6071;845.6683;498.6071
503.9467;697.1349;Fract:5
510.6282;648.8417;Fract:5
514.5704;631.7880;Fract:5
515.9158;631.7880;Fract:3
516.4508;595.8307;Fract:4
516.5930;595.8307;Fract:1
518.0143;595.8307;519.3812
CPXPARAM_MIP_Cuts_Gomory 10
Instance11
Objective;Best_Integer;Best_Bound
integral;561.1585;561.1585
CPXPARAM_MIP_Cuts_Gomory 0
Instance12
Objective;Best_Integer;Best_Bound
386.2283;534.4657;386.2283
389.8771;534.4657;Fract:6
397.4738;526.4159;Fract:7
402.0185;488.8119;Fract:4
402.8572;488.8119;Fract:5
403.3845;488.8119;Fract:2
403.7036;488.8119;Fract:3
403.7036;488.8119;404.0942
CPXPARAM_MIP_Cuts_Gomory 11
Instance13
Objective;Best_Integer;Best_Bound
integral;389.1110;389.1110
CPXPARAM_MIP_Cuts_Gomory 0
Instance14
Objective;Best_Integer;Best_Bound
386.2283;534.4657;386.2283
390.0124;534.4657;Fract:6
397.4624;526.4159;Fract:6
398.1853;488.8119;Fract:6
401.8341;488.8119;Fract:4
402.9180;488.8119;Fract:7
402.9757;474.3633;Fract:1
403.1085;474.3633;Fract:2
403.1085;474.3633;403.2880
CPXPARAM_MIP_Cuts_Gomory 9
Instance15
Objective;Best_Integer;Best_Bound
integral;410.1756;410.1756
CPXPARAM_MIP_Cuts_Gomory 0
Instance16
Objective;Best_Integer;Best_Bound
417.5617;482.5302;417.5617
420.1512;482.5302;Fract:6
424.1383;475.1344;Fract:9
427.2367;465.5226;Fract:7
429.0125;465.5226;Fract:8
430.0282;465.5226;Fract:5
430.5120;465.5226;430.6332
CPXPARAM_MIP_Cuts_Gomory 9
Instance17
Objective;Best_Integer;Best_Bound
integral;425.9937;425.9937
CPXPARAM_MIP_Cuts_Gomory 0
Instance18
Objective;Best_Integer;Best_Bound
423.0032;673.4267;423.0032
424.4779;591.6412;Fract:5
426.6596;465.5226;Fract:4
427.1828;465.5226;Fract:6
427.9234;465.5226;Fract:2
428.2336;465.5226;Fract:3
428.4514;465.5226;428.7410
CPXPARAM_MIP_Cuts_Gomory 5
Instance19
Objective;Best_Integer;Best_Bound
integral;446.2379;446.2379
CPXPARAM_MIP_Cuts_Gomory 0
Instance20
Objective;Best_Integer;Best_Bound
283.8374;499.7053;283.8374
286.3451;335.4671;Fract:5
289.1456;335.4671;Fract:6
290.4209;335.4671;Fract:5
292.5838;315.2212;Fract:1
293.5788;315.2212;Fract:4
294.3598;315.2212;295.4825
CPXPARAM_MIP_Cuts_Gomory 8
Instance21
Objective;Best_Integer;Best_Bound
integral;283.8374;283.8374
CPXPARAM_MIP_Cuts_Gomory 0
Instance22
Objective;Best_Integer;Best_Bound
286.9244;502.7786;286.9244
294.1139;406.3795;Fract:7
298.0361;392.9654;Fract:8
299.5650;392.9654;Fract:2
301.0986;392.1710;Fract:6
302.4804;392.1710;Fract:3
302.4980;392.1710;Fract:1
306.0761;315.4732;306.3031
CPXPARAM_MIP_Cuts_Gomory 7
Instance23
Objective;Best_Integer;Best_Bound
integral;293.4740;293.4740
CPXPARAM_MIP_Cuts_Gomory 0
Instance24
Objective;Best_Integer;Best_Bound
363.2658;473.7492;363.2658
366.0844;458.3613;Fract:7
367.3547;444.0143;Fract:4
368.7788;399.6484;Fract:5
369.6989;399.6484;Fract:6
370.5806;399.6484;Fract:5
370.6019;399.6484;Fract:1
370.6305;399.6484;Fract:1
370.7402;399.6484;371.0922
CPXPARAM_MIP_Cuts_Gomory 9
Instance25
Objective;Best_Integer;Best_Bound
integral;372.4575;372.4575
CPXPARAM_MIP_Cuts_Gomory 0
Instance26
Objective;Best_Integer;Best_Bound
372.1627;476.4585;372.1627
377.5017;476.4585;Fract:5
379.6618;404.2019;Fract:4
380.6255;404.2019;Fract:4
380.9742;399.6484;Fract:1
381.0885;399.6484;Fract:1
381.1241;399.6484;Fract:1
381.1241;399.6484;381.5295
CPXPARAM_MIP_Cuts_Gomory 7
Instance27
Objective;Best_Integer;Best_Bound
integral;385.0255;385.0255
CPXPARAM_MIP_Cuts_Gomory 0
Instance28
Objective;Best_Integer;Best_Bound
601.4591;872.5219;601.4591
604.1950;737.8283;Fract:4
611.6322;696.2579;Fract:7
613.2013;652.5589;Fract:6
614.4566;652.5589;Fract:4
615.5644;652.5589;Fract:4
617.1680;652.5589;617.9006
CPXPARAM_MIP_Cuts_Gomory 10
Instance29
Objective;Best_Integer;Best_Bound
integral;596.9704;596.9704
CPXPARAM_MIP_Cuts_Gomory 0
Instance30
Objective;Best_Integer;Best_Bound
601.4591;877.2624;601.4591
603.0527;696.2579;Fract:4
610.6499;696.2579;Fract:9
614.3669;652.5589;Fract:3
615.9723;652.5589;Fract:6
616.8457;652.5589;Fract:4
cutoff;616.8457;99
CPXPARAM_MIP_Cuts_Gomory 8
Instance31
Objective;Best_Integer;Best_Bound
integral;601.4591;601.4591
CPXPARAM_MIP_Cuts_Gomory 0
Instance32
Objective;Best_Integer;Best_Bound
285.1772;538.6067;285.1772
296.3193;527.4518;Fract:6
304.2355;398.4261;Fract:5
305.5351;392.1998;Fract:5
307.8182;392.1998;Fract:5
309.1827;392.1998;Fract:3
309.4685;392.1998;309.4916
CPXPARAM_MIP_Cuts_Gomory 8
Instance33
Objective;Best_Integer;Best_Bound
304.9439;671.2898;304.9439
integral;304.9870;304.9870
CPXPARAM_MIP_Cuts_Gomory 0
Instance34
Objective;Best_Integer;Best_Bound
304.9439;548.6165;304.9439
307.4500;522.3973;Fract:6
313.6376;462.2964;Fract:7
317.5044;392.1998;Fract:8
319.9835;392.1998;Fract:5
320.9448;392.1998;Fract:7
320.9736;392.1998;Fract:2
320.9938;392.1998;321.0264
CPXPARAM_MIP_Cuts_Gomory 9
Instance35
Objective;Best_Integer;Best_Bound
integral;363.5184;363.5184
CPXPARAM_MIP_Cuts_Gomory 0
Instance36
Objective;Best_Integer;Best_Bound
431.0120;643.3001;431.0120
434.0791;591.9356;Fract:6
438.5602;591.9356;Fract:7
440.2462;534.0033;Fract:8
441.8105;517.9938;Fract:6
443.7704;497.5652;Fract:3
444.3715;497.5652;Fract:1
444.4105;497.5652;Fract:1
445.5452;497.5652;445.8402
CPXPARAM_MIP_Cuts_Gomory 9
Instance37
Objective;Best_Integer;Best_Bound
integral;431.0120;431.0120
CPXPARAM_MIP_Cuts_Gomory 0
Instance38
Objective;Best_Integer;Best_Bound
431.2487;644.4799;431.2487
434.1390;591.9356;Fract:4
438.0312;591.9356;Fract:8
444.7915;534.0033;Fract:7
446.0162;497.5652;Fract:1
447.0289;497.5652;Fract:5
447.3175;497.5652;Fract:1
447.7538;497.5652;448.3955
CPXPARAM_MIP_Cuts_Gomory 9
Instance39
Objective;Best_Integer;Best_Bound
cutoff;451.8439;34
cutoff;451.8439;34
CPXPARAM_MIP_Cuts_Gomory 0
